LAMMPS data file via write_data, version 19 Nov 2024, timestep = 1, units = lj

1000 atoms
2 atom types

0 20.87064 xlo xhi
0 20.87064 ylo yhi
0 20.87064 zlo zhi

Masses

1 1
2 1

Atoms # chiral

1 1 1 0 16.6735 20.0443 9.43681 0
339 339 1 0.0 19.882600 11.832500 0.000833 1.0
411 411 1 0.0 7.585060 19.420700 0.030397 1.0
381 381 1 0.0 0.834325 11.167000 0.167735 1.0
228 228 1 0.0 15.969400 14.788100 0.362356 1.0
56 56 1 0.0 20.136000 4.776530 0.380864 1.0
337 337 1 0.0 3.077720 17.617700 0.390970 1.0
884 884 1 0.0 3.069670 15.171600 0.400039 1.0
344 344 1 0.0 11.140400 11.175100 0.417490 1.0
885 885 1 0.0 18.260500 5.088140 0.430056 1.0
115 115 1 0.0 13.925900 4.664750 0.442628 1.0
142 142 1 0.0 11.556200 1.682340 0.484338 1.0
995 995 1 0.0 7.535260 9.976690 0.502574 1.0
960 960 1 0.0 5.601990 8.280130 0.513579 1.0
720 720 1 0.0 7.206650 12.613800 0.565303 1.0
985 985 1 0.0 17.738000 9.996340 0.567613 1.0
878 878 1 0.0 5.633320 4.279820 0.592654 1.0
766 766 1 0.0 3.823060 3.304950 0.602752 1.0
697 697 1 0.0 10.562000 0.538923 0.628282 1.0
238 238 1 0.0 3.037930 3.398750 0.634330 1.0
657 657 1 0.0 8.071660 15.776900 0.638313 1.0
124 124 1 0.0 12.444400 17.981800 0.652641 1.0
89 89 1 0.0 15.667100 2.177140 0.668443 1.0
282 282 1 0.0 4.724600 17.440700 0.677464 1.0
908 908 1 0.0 13.704600 6.397460 0.683864 1.0
39 39 1 0.0 9.338410 10.177000 0.692816 1.0
334 334 1 0.0 18.224300 1.405320 0.707361 1.0
550 550 1 0.0 14.493900 18.025500 0.765603 1.0
976 976 1 0.0 2.248160 15.240400 0.767050 1.0
203 203 1 0.0 17.904700 15.432600 0.778680 1.0
107 107 1 0.0 14.419800 14.198300 0.786428 1.0
572 572 1 0.0 13.990800 12.104500 0.794295 1.0
787 787 1 0.0 6.388430 5.827200 0.820876 1.0
664 664 1 0.0 6.835820 18.162900 0.821446 1.0
987 987 1 0.0 5.268640 0.592845 0.836797 1.0
459 459 1 0.0 5.858800 11.431100 0.843925 1.0
452 452 1 0.0 19.328000 19.981800 0.844939 1.0
511 511 1 0.0 15.543400 6.732180 0.879263 1.0
333 333 1 0.0 5.701420 2.666150 0.880290 1.0
829 829 1 0.0 17.939900 6.352070 0.914026 1.0
434 434 1 0.0 14.538300 15.521000 0.915283 1.0
98 98 1 0.0 2.436610 8.928780 0.953710 1.0
798 798 1 0.0 5.249280 14.308800 0.965718 1.0
92 92 1 0.0 12.288900 10.595400 0.983334 1.0
688 688 1 0.0 19.517300 7.989110 0.983364 1.0
597 597 1 0.0 2.105760 3.129900 0.992538 1.0
903 903 1 0.0 11.315600 12.605200 1.026920 1.0
397 397 1 0.0 14.267000 4.224050 1.086310 1.0
453 453 1 0.0 1.984150 6.079410 1.135010 1.0
231 231 1 0.0 1.673380 1.416770 1.242160 1.0
97 97 1 0.0 7.515090 2.770480 1.249220 1.0
329 329 1 0.0 17.131500 2.383850 1.261730 1.0
794 794 1 0.0 6.056700 7.580210 1.287400 1.0
855 855 1 0.0 1.777050 16.114900 1.308540 1.0
24 24 1 0.0 6.559780 16.273000 1.325780 1.0
541 541 1 0.0 7.366610 4.533180 1.339400 1.0
552 552 1 0.0 5.390810 11.673700 1.409650 1.0
119 119 1 0.0 11.311700 3.189240 1.413120 1.0
391 391 1 0.0 17.281400 13.622100 1.442960 1.0
999 999 1 0.0 9.143080 16.507600 1.445030 1.0
121 121 1 0.0 19.125100 10.916700 1.453700 1.0
390 390 1 0.0 16.137200 5.163440 1.457090 1.0
38 38 1 0.0 12.980700 2.846340 1.486830 1.0
114 114 1 0.0 7.707230 7.447370 1.495710 1.0
580 580 1 0.0 3.712500 7.412300 1.496790 1.0
993 993 1 0.0 10.197500 13.923800 1.500680 1.0
990 990 1 0.0 19.980400 18.626900 1.517530 1.0
101 101 1 0.0 2.880830 2.790280 1.534090 1.0
708 708 1 0.0 9.060770 0.600179 1.556190 1.0
891 891 1 0.0 1.658890 8.003530 1.563970 1.0
659 659 1 0.0 10.065700 14.208200 1.564710 1.0
871 871 1 0.0 1.755340 12.617800 1.583850 1.0
451 451 1 0.0 11.304600 8.367010 1.599090 1.0
956 956 1 0.0 10.996800 4.711190 1.604880 1.0
547 547 1 0.0 17.683900 19.173900 1.626360 1.0
728 728 1 0.0 16.929200 7.774440 1.633370 1.0
717 717 1 0.0 16.875500 8.520110 1.653380 1.0
525 525 1 0.0 19.566800 3.848900 1.683880 1.0
494 494 1 0.0 3.301070 8.801350 1.692660 1.0
704 704 1 0.0 18.877400 12.739600 1.700580 1.0
210 210 1 0.0 4.243660 5.095600 1.704660 1.0
473 473 1 0.0 9.777680 8.379330 1.704790 1.0
522 522 1 0.0 12.134400 14.198200 1.704950 1.0
20 20 1 0.0 2.422450 13.116700 1.708690 1.0
72 72 1 0.0 18.592100 7.394460 1.716710 1.0
236 236 1 0.0 3.109320 6.505590 1.729200 1.0
52 52 1 0.0 12.447000 7.441170 1.749210 1.0
807 807 1 0.0 4.657100 19.328100 1.753630 1.0
989 989 1 0.0 11.483600 9.239370 1.757190 1.0
480 480 1 0.0 9.797270 6.120320 1.757480 1.0
503 503 1 0.0 8.649520 14.660700 1.775980 1.0
187 187 1 0.0 12.866800 3.001860 1.777370 1.0
599 599 1 0.0 3.385860 0.583260 1.808010 1.0
301 301 1 0.0 17.072700 3.040930 1.825120 1.0
412 412 1 0.0 6.318300 14.352100 1.845120 1.0
780 780 1 0.0 17.996900 9.805760 1.857170 1.0
408 408 1 0.0 5.756390 3.875280 1.873650 1.0
813 813 1 0.0 13.714200 2.398020 1.913410 1.0
667 667 1 0.0 15.386500 2.292020 1.920170 1.0
953 953 1 0.0 12.341500 19.722100 1.951760 1.0
779 779 1 0.0 1.734980 10.806800 1.956980 1.0
439 439 1 0.0 2.136560 1.906860 1.975920 1.0
502 502 1 0.0 18.584500 17.301100 1.994200 1.0
888 888 1 0.0 3.021930 15.046000 1.995740 1.0
902 902 1 0.0 12.923700 6.550950 2.017720 1.0
342 342 1 0.0 17.212000 6.632490 2.052280 1.0
258 258 1 0.0 14.735000 8.024870 2.072360 1.0
69 69 1 0.0 2.469490 19.203500 2.080290 1.0
355 355 1 0.0 2.652390 16.823300 2.084620 1.0
521 521 1 0.0 7.488980 13.767700 2.120060 1.0
677 677 1 0.0 13.826600 2.951670 2.122330 1.0
828 828 1 0.0 16.539400 10.478100 2.134620 1.0
87 87 1 0.0 0.460033 11.072400 2.140420 1.0
471 471 1 0.0 15.584800 17.942500 2.175970 1.0
353 353 1 0.0 16.579700 1.523130 2.187670 1.0
380 380 1 0.0 5.623980 11.208700 2.192230 1.0
112 112 1 0.0 4.820580 13.061600 2.198810 1.0
47 47 1 0.0 5.025010 9.039380 2.222910 1.0
27 27 1 0.0 5.132030 18.413300 2.230830 1.0
23 23 1 0.0 7.612290 10.422100 2.260930 1.0
105 105 1 0.0 9.846650 18.146200 2.280170 1.0
847 847 1 0.0 8.621120 11.499100 2.288280 1.0
856 856 1 0.0 14.923600 13.775300 2.290890 1.0
382 382 1 0.0 1.520340 16.034900 2.292920 1.0
83 83 1 0.0 19.639200 14.244000 2.339350 1.0
335 335 1 0.0 13.034500 8.729510 2.343400 1.0
628 628 1 0.0 16.260700 1.440130 2.344760 1.0
585 585 1 0.0 11.684100 11.899000 2.351490 1.0
94 94 1 0.0 19.140900 16.564900 2.379280 1.0
368 368 1 0.0 13.415300 15.646500 2.414230 1.0
942 942 1 0.0 10.115200 0.698247 2.432240 1.0
992 992 1 0.0 9.168670 9.415880 2.465850 1.0
809 809 1 0.0 5.128960 14.706000 2.486620 1.0
546 546 1 0.0 12.744300 4.804540 2.500240 1.0
877 877 1 0.0 16.443100 12.118000 2.504880 1.0
70 70 1 0.0 13.325600 17.179600 2.519600 1.0
340 340 1 0.0 4.226280 16.769600 2.531490 1.0
916 916 1 0.0 9.494870 4.126480 2.550620 1.0
7 7 1 0.0 3.977550 11.192800 2.554840 1.0
626 626 1 0.0 17.981200 11.838100 2.558670 1.0
723 723 1 0.0 1.254860 6.102650 2.637480 1.0
30 30 1 0.0 2.055630 18.612600 2.641840 1.0
710 710 1 0.0 13.742900 12.061600 2.651050 1.0
76 76 1 0.0 17.424600 0.543320 2.664400 1.0
915 915 1 0.0 14.927700 5.393190 2.668280 1.0
285 285 1 0.0 20.096300 0.670195 2.677280 1.0
735 735 1 0.0 14.787500 10.317700 2.688720 1.0
921 921 1 0.0 15.849200 12.588400 2.704340 1.0
51 51 1 0.0 4.575400 5.512170 2.744370 1.0
904 904 1 0.0 7.189180 2.141540 2.746660 1.0
179 179 1 0.0 8.200130 19.665900 2.789390 1.0
251 251 1 0.0 15.850000 19.553400 2.808360 1.0
325 325 1 0.0 10.968800 3.700580 2.832730 1.0
229 229 1 0.0 9.813980 6.482140 2.836880 1.0
165 165 1 0.0 11.166500 15.886400 2.838910 1.0
947 947 1 0.0 7.295260 6.851240 2.841900 1.0
941 941 1 0.0 1.808010 19.910000 2.851570 1.0
224 224 1 0.0 12.730700 13.812000 2.859200 1.0
477 477 1 0.0 4.022680 14.221900 2.898160 1.0
954 954 1 0.0 5.589400 6.177440 2.971440 1.0
834 834 1 0.0 3.445740 6.254790 2.990230 1.0
118 118 1 0.0 7.667340 3.740990 3.002360 1.0
793 793 1 0.0 0.694479 14.228000 3.037770 1.0
670 670 1 0.0 13.919700 10.220700 3.038540 1.0
577 577 1 0.0 18.983600 1.751550 3.087110 1.0
19 19 1 0.0 3.409820 14.250800 3.111650 1.0
755 755 1 0.0 19.058900 5.847040 3.112630 1.0
366 366 1 0.0 19.355200 18.184500 3.124370 1.0
530 530 1 0.0 15.245400 8.209210 3.125980 1.0
996 996 1 0.0 16.234600 15.398300 3.137680 1.0
724 724 1 0.0 2.011440 17.453800 3.146800 1.0
859 859 1 0.0 7.783490 16.287200 3.152500 1.0
854 854 1 0.0 11.297100 18.978600 3.169650 1.0
739 739 1 0.0 1.228260 0.707587 3.183250 1.0
440 440 1 0.0 16.922000 17.153400 3.190160 1.0
770 770 1 0.0 9.206910 4.970040 3.203150 1.0
174 174 1 0.0 8.760430 0.914287 3.231120 1.0
102 102 1 0.0 14.011900 19.162600 3.245030 1.0
150 150 1 0.0 13.818400 3.487520 3.278820 1.0
516 516 1 0.0 0.502039 1.547240 3.292050 1.0
153 153 1 0.0 10.835700 1.716810 3.311600 1.0
747 747 1 0.0 15.084000 3.493550 3.312720 1.0
103 103 1 0.0 0.947766 9.495600 3.332540 1.0
804 804 1 0.0 9.475440 2.303900 3.333160 1.0
438 438 1 0.0 11.877000 8.421210 3.347480 1.0
204 204 1 0.0 17.923000 13.700500 3.349900 1.0
595 595 1 0.0 13.651900 9.735690 3.368440 1.0
830 830 1 0.0 5.832590 15.864900 3.381530 1.0
936 936 1 0.0 7.805870 12.250200 3.389370 1.0
418 418 1 0.0 9.797920 16.406900 3.390540 1.0
839 839 1 0.0 15.373000 19.400600 3.394880 1.0
789 789 1 0.0 1.736210 13.278100 3.451340 1.0
155 155 1 0.0 8.048440 14.769800 3.469290 1.0
306 306 1 0.0 4.480010 0.493919 3.470530 1.0
777 777 1 0.0 15.476300 17.889400 3.508250 1.0
341 341 1 0.0 10.772400 10.648100 3.510330 1.0
198 198 1 0.0 15.896800 1.049990 3.543630 1.0
136 136 1 0.0 13.811700 6.913480 3.557770 1.0
887 887 1 0.0 12.665700 0.806673 3.561010 1.0
919 919 1 0.0 13.274100 13.524100 3.561880 1.0
957 957 1 0.0 18.789100 10.284800 3.565170 1.0
305 305 1 0.0 11.906500 14.119700 3.573600 1.0
669 669 1 0.0 10.029400 1.454670 3.586890 1.0
658 658 1 0.0 2.448170 12.371700 3.609640 1.0
606 606 1 0.0 19.395600 8.416820 3.620360 1.0
191 191 1 0.0 13.097700 19.525200 3.632910 1.0
493 493 1 0.0 17.074100 18.423100 3.658030 1.0
574 574 1 0.0 19.522700 12.868000 3.662360 1.0
245 245 1 0.0 6.082930 18.979400 3.664890 1.0
423 423 1 0.0 1.055940 15.939300 3.711440 1.0
299 299 1 0.0 17.407900 8.056840 3.718590 1.0
820 820 1 0.0 4.312250 1.963110 3.725820 1.0
401 401 1 0.0 3.236400 5.937020 3.771880 1.0
280 280 1 0.0 17.947500 15.896300 3.787880 1.0
130 130 1 0.0 16.834100 20.446200 3.796000 1.0
253 253 1 0.0 9.842970 8.717850 3.838110 1.0
140 140 1 0.0 12.422600 10.604400 3.918640 1.0
446 446 1 0.0 13.514500 16.633700 3.932570 1.0
479 479 1 0.0 5.954180 1.428840 4.002360 1.0
970 970 1 0.0 3.535420 9.132980 4.013960 1.0
232 232 1 0.0 6.596010 1.459890 4.064890 1.0
753 753 1 0.0 10.344000 18.338900 4.068520 1.0
873 873 1 0.0 3.661540 18.411200 4.111630 1.0
36 36 1 0.0 7.094590 3.942870 4.114980 1.0
803 803 1 0.0 11.804700 5.001760 4.126120 1.0
195 195 1 0.0 6.742410 12.910100 4.138690 1.0
278 278 1 0.0 17.335500 2.510210 4.155070 1.0
389 389 1 0.0 1.802720 10.857600 4.169830 1.0
209 209 1 0.0 5.256330 3.260650 4.172490 1.0
756 756 1 0.0 1.594990 19.436700 4.180940 1.0
610 610 1 0.0 10.923500 1.704390 4.189050 1.0
388 388 1 0.0 12.205600 2.716510 4.196130 1.0
991 991 1 0.0 20.008100 2.719000 4.220470 1.0
161 161 1 0.0 14.876800 5.268930 4.235210 1.0
918 918 1 0.0 9.420410 5.116380 4.239110 1.0
413 413 1 0.0 12.408200 17.605000 4.242220 1.0
393 393 1 0.0 6.340830 9.216760 4.290800 1.0
316 316 1 0.0 19.687900 4.554040 4.292300 1.0
640 640 1 0.0 5.423890 13.640400 4.362560 1.0
78 78 1 0.0 7.704680 1.836300 4.385990 1.0
6 6 1 0.0 2.414580 10.345600 4.405640 1.0
940 940 1 0.0 7.062650 5.799660 4.418210 1.0
432 432 1 0.0 2.530780 1.417480 4.468150 1.0
788 788 1 0.0 7.598140 18.537400 4.474550 1.0
949 949 1 0.0 1.325600 3.108660 4.506950 1.0
169 169 1 0.0 17.933000 9.597010 4.535410 1.0
319 319 1 0.0 16.361100 3.691130 4.588880 1.0
709 709 1 0.0 2.356260 7.625290 4.603400 1.0
73 73 1 0.0 14.442600 1.906920 4.663110 1.0
226 226 1 0.0 4.771340 16.500800 4.668960 1.0
681 681 1 0.0 5.370910 11.422700 4.675220 1.0
917 917 1 0.0 2.684140 1.812780 4.702310 1.0
841 841 1 0.0 7.410040 7.524490 4.734840 1.0
99 99 1 0.0 8.544020 14.106600 4.740360 1.0
175 175 1 0.0 12.974900 15.419000 4.773470 1.0
5 5 1 0.0 13.444200 8.855510 4.776660 1.0
894 894 1 0.0 16.511500 17.177300 4.794460 1.0
476 476 1 0.0 11.093900 4.108130 4.803050 1.0
159 159 1 0.0 3.925610 2.802980 4.820990 1.0
213 213 1 0.0 18.796500 19.992200 4.833230 1.0
690 690 1 0.0 9.611160 3.172840 4.861450 1.0
320 320 1 0.0 3.014610 14.062600 4.889660 1.0
695 695 1 0.0 19.413000 15.639500 4.905660 1.0
351 351 1 0.0 11.917300 13.173800 4.908820 1.0
701 701 1 0.0 17.191900 8.365450 4.919920 1.0
583 583 1 0.0 2.824530 18.044500 4.928980 1.0
634 634 1 0.0 6.411240 10.205800 4.931930 1.0
865 865 1 0.0 4.859290 18.543000 4.977480 1.0
943 943 1 0.0 2.148560 5.647590 5.003770 1.0
778 778 1 0.0 11.436100 19.440600 5.017350 1.0
419 419 1 0.0 10.407000 14.587300 5.031190 1.0
492 492 1 0.0 13.362800 3.839240 5.056150 1.0
421 421 1 0.0 0.405021 16.638400 5.082570 1.0
345 345 1 0.0 9.409960 6.801450 5.083620 1.0
848 848 1 0.0 13.934800 0.761060 5.125430 1.0
631 631 1 0.0 8.619860 10.831900 5.130330 1.0
303 303 1 0.0 15.376000 9.065210 5.138800 1.0
566 566 1 0.0 1.247780 1.459090 5.141470 1.0
646 646 1 0.0 0.562373 8.124640 5.149130 1.0
767 767 1 0.0 15.720400 6.617360 5.164610 1.0
122 122 1 0.0 2.810670 17.119100 5.165040 1.0
961 961 1 0.0 0.752679 19.017100 5.200090 1.0
928 928 1 0.0 2.765780 12.284600 5.202510 1.0
330 330 1 0.0 17.790900 3.983880 5.230700 1.0
545 545 1 0.0 17.829600 14.233000 5.282420 1.0
945 945 1 0.0 6.450610 14.025600 5.287220 1.0
879 879 1 0.0 19.382200 7.059230 5.287260 1.0
684 684 1 0.0 19.201200 11.720800 5.312460 1.0
289 289 1 0.0 19.646500 14.001800 5.329630 1.0
128 128 1 0.0 4.250180 7.746570 5.381320 1.0
736 736 1 0.0 15.152700 0.419118 5.383340 1.0
969 969 1 0.0 2.652270 6.830370 5.421970 1.0
754 754 1 0.0 2.472380 19.202200 5.442110 1.0
890 890 1 0.0 20.088900 1.771950 5.449730 1.0
50 50 1 0.0 18.397900 5.699860 5.467120 1.0
988 988 1 0.0 1.904640 4.017290 5.471730 1.0
498 498 1 0.0 18.231100 18.855600 5.488370 1.0
22 22 1 0.0 15.086000 16.220800 5.512420 1.0
214 214 1 0.0 16.818300 12.337300 5.534410 1.0
441 441 1 0.0 8.366780 9.190210 5.562590 1.0
840 840 1 0.0 6.298840 15.841800 5.563090 1.0
21 21 1 0.0 9.093050 4.251620 5.569650 1.0
367 367 1 0.0 4.024720 13.760200 5.606420 1.0
362 362 1 0.0 8.977000 15.839100 5.646280 1.0
769 769 1 0.0 12.480500 7.562350 5.657790 1.0
241 241 1 0.0 16.604800 0.450896 5.676030 1.0
100 100 1 0.0 7.898430 17.179800 5.696950 1.0
365 365 1 0.0 3.629260 9.491410 5.712080 1.0
935 935 1 0.0 11.932600 1.484060 5.732430 1.0
2 2 1 0.0 10.607000 11.084700 5.828460 1.0
264 264 1 0.0 15.921600 2.365170 5.850680 1.0
363 363 1 0.0 9.696830 12.829400 5.856470 1.0
864 864 1 0.0 20.441800 6.542780 5.858520 1.0
629 629 1 0.0 13.207600 9.224570 5.929190 1.0
923 923 1 0.0 14.197100 6.368280 5.933380 1.0
886 886 1 0.0 1.182770 12.753100 5.962230 1.0
444 444 1 0.0 8.981450 5.214520 5.971030 1.0
202 202 1 0.0 6.767380 4.832390 5.987010 1.0
347 347 1 0.0 18.299100 16.896100 6.034570 1.0
225 225 1 0.0 17.016200 10.060600 6.086540 1.0
467 467 1 0.0 10.698800 8.333980 6.093100 1.0
59 59 1 0.0 2.374010 14.954000 6.105110 1.0
647 647 1 0.0 15.681100 19.151600 6.122240 1.0
727 727 1 0.0 13.370300 12.787800 6.181720 1.0
125 125 1 0.0 6.553370 3.092890 6.216590 1.0
54 54 1 0.0 7.911590 1.025090 6.234290 1.0
37 37 1 0.0 14.720900 14.008600 6.249830 1.0
764 764 1 0.0 4.052270 6.031570 6.254410 1.0
876 876 1 0.0 11.167100 5.148170 6.292920 1.0
139 139 1 0.0 12.128700 18.321200 6.293130 1.0
774 774 1 0.0 1.378140 6.479660 6.308700 1.0
396 396 1 0.0 2.367390 2.710840 6.330580 1.0
131 131 1 0.0 14.285200 17.582500 6.336750 1.0
166 166 1 0.0 16.370400 13.669700 6.375830 1.0
96 96 1 0.0 5.380250 8.312770 6.377580 1.0
265 265 1 0.0 6.376780 18.048700 6.421220 1.0
84 84 1 0.0 3.684460 0.886929 6.436260 1.0
31 31 1 0.0 6.403790 2.561890 6.468060 1.0
167 167 1 0.0 0.372492 14.548600 6.489610 1.0
738 738 1 0.0 4.440190 19.806400 6.514600 1.0
186 186 1 0.0 7.777370 19.496100 6.515120 1.0
120 120 1 0.0 11.714500 15.981100 6.560780 1.0
560 560 1 0.0 15.439800 4.927010 6.563930 1.0
731 731 1 0.0 15.493200 8.566750 6.617040 1.0
374 374 1 0.0 2.656240 10.434400 6.633640 1.0
543 543 1 0.0 0.606446 3.433310 6.693570 1.0
372 372 1 0.0 5.794330 6.401360 6.702870 1.0
600 600 1 0.0 12.379200 11.373800 6.715290 1.0
75 75 1 0.0 6.043230 9.107110 6.716620 1.0
194 194 1 0.0 1.433160 1.705070 6.737490 1.0
406 406 1 0.0 18.445100 1.625650 6.739030 1.0
60 60 1 0.0 11.760800 13.177500 6.778330 1.0
354 354 1 0.0 17.464600 6.107720 6.794990 1.0
501 501 1 0.0 17.906500 9.133140 6.800330 1.0
984 984 1 0.0 6.539170 10.491300 6.838160 1.0
255 255 1 0.0 14.195000 19.642300 6.855010 1.0
693 693 1 0.0 1.466260 9.380970 6.856600 1.0
897 897 1 0.0 14.148200 5.002140 6.884400 1.0
403 403 1 0.0 5.246650 11.738600 6.911720 1.0
901 901 1 0.0 0.402136 11.355900 6.949300 1.0
326 326 1 0.0 18.401500 3.518300 6.958730 1.0
562 562 1 0.0 7.054310 12.547000 6.965970 1.0
868 868 1 0.0 7.607880 6.991640 6.975720 1.0
252 252 1 0.0 14.538000 1.985160 6.977230 1.0
276 276 1 0.0 1.443970 2.781280 6.989390 1.0
860 860 1 0.0 5.270030 14.460200 7.004830 1.0
815 815 1 0.0 17.139400 1.229870 7.031040 1.0
845 845 1 0.0 1.255110 17.458100 7.083520 1.0
462 462 1 0.0 14.190600 10.247100 7.086550 1.0
963 963 1 0.0 3.175390 18.779000 7.118170 1.0
564 564 1 0.0 2.430480 17.851600 7.150080 1.0
867 867 1 0.0 8.255940 14.500700 7.183050 1.0
461 461 1 0.0 10.530100 19.290000 7.232360 1.0
926 926 1 0.0 8.941280 10.869600 7.233220 1.0
116 116 1 0.0 4.984300 0.736093 7.249020 1.0
601 601 1 0.0 0.730966 5.075260 7.271810 1.0
240 240 1 0.0 16.061000 11.974600 7.335420 1.0
532 532 1 0.0 1.030440 15.462200 7.339950 1.0
487 487 1 0.0 17.569300 13.872500 7.349100 1.0
445 445 1 0.0 4.468800 3.284720 7.356610 1.0
58 58 1 0.0 13.931800 16.124900 7.407550 1.0
442 442 1 0.0 9.436690 17.539700 7.409990 1.0
748 748 1 0.0 19.843000 7.202650 7.419710 1.0
694 694 1 0.0 6.475590 15.802000 7.455250 1.0
332 332 1 0.0 11.090700 9.884150 7.457990 1.0
346 346 1 0.0 19.404300 2.969770 7.485630 1.0
137 137 1 0.0 2.166270 19.899400 7.486080 1.0
814 814 1 0.0 13.697700 18.502100 7.536670 1.0
356 356 1 0.0 16.583600 2.682160 7.544060 1.0
643 643 1 0.0 17.216200 19.102000 7.548680 1.0
349 349 1 0.0 9.147740 3.027910 7.591550 1.0
849 849 1 0.0 18.816500 16.313000 7.613670 1.0
302 302 1 0.0 2.428200 9.431970 7.632200 1.0
675 675 1 0.0 19.249200 9.617790 7.650670 1.0
719 719 1 0.0 1.795860 19.337500 7.662340 1.0
414 414 1 0.0 10.600900 12.879400 7.713630 1.0
535 535 1 0.0 2.867100 12.851900 7.721850 1.0
472 472 1 0.0 11.986500 3.151980 7.744340 1.0
428 428 1 0.0 3.861070 8.447970 7.765910 1.0
783 783 1 0.0 0.718246 17.483000 7.769040 1.0
782 782 1 0.0 8.418690 1.391950 7.801500 1.0
874 874 1 0.0 19.592700 4.718290 7.806860 1.0
920 920 1 0.0 15.348800 0.346679 7.811840 1.0
745 745 1 0.0 9.983740 15.425800 7.818120 1.0
29 29 1 0.0 5.556460 13.359900 7.842820 1.0
898 898 1 0.0 2.989730 1.478710 7.866250 1.0
613 613 1 0.0 13.226200 7.124540 7.879830 1.0
185 185 1 0.0 12.919600 14.340500 7.889060 1.0
244 244 1 0.0 5.765000 4.323770 7.892730 1.0
557 557 1 0.0 8.079210 9.669490 7.919570 1.0
424 424 1 0.0 11.498200 17.314200 7.965200 1.0
352 352 1 0.0 6.490020 6.685290 7.971120 1.0
288 288 1 0.0 0.776244 13.277600 8.046480 1.0
296 296 1 0.0 2.442740 11.842300 8.047700 1.0
243 243 1 0.0 15.907300 6.645670 8.059530 1.0
322 322 1 0.0 14.799300 7.925280 8.072080 1.0
148 148 1 0.0 2.806650 4.200930 8.137370 1.0
623 623 1 0.0 6.129030 19.133300 8.180840 1.0
490 490 1 0.0 8.070140 8.135650 8.199460 1.0
223 223 1 0.0 3.415180 17.027700 8.219990 1.0
274 274 1 0.0 1.150110 8.027310 8.223470 1.0
271 271 1 0.0 17.877200 7.555590 8.251240 1.0
425 425 1 0.0 15.172700 14.353000 8.303910 1.0
321 321 1 0.0 12.174900 9.895760 8.316760 1.0
375 375 1 0.0 0.492844 2.379240 8.399340 1.0
378 378 1 0.0 12.602300 19.192200 8.411620 1.0
817 817 1 0.0 8.947030 18.687900 8.427210 1.0
269 269 1 0.0 3.840160 14.770600 8.428520 1.0
569 569 1 0.0 4.353370 6.689260 8.429350 1.0
220 220 1 0.0 19.916000 15.239500 8.454550 1.0
181 181 1 0.0 19.377100 18.193600 8.471950 1.0
294 294 1 0.0 15.365200 18.666400 8.478820 1.0
598 598 1 0.0 12.062800 7.477640 8.493740 1.0
312 312 1 0.0 17.648600 4.542430 8.504610 1.0
790 790 1 0.0 15.273800 0.897162 8.521260 1.0
692 692 1 0.0 15.734400 17.448200 8.526460 1.0
934 934 1 0.0 13.448400 11.682000 8.594390 1.0
559 559 1 0.0 1.874370 13.925000 8.596010 1.0
882 882 1 0.0 9.404560 4.968340 8.601430 1.0
178 178 1 0.0 14.594800 9.492480 8.610580 1.0
998 998 1 0.0 4.226570 11.127000 8.611830 1.0
416 416 1 0.0 17.096700 16.651600 8.623080 1.0
206 206 1 0.0 3.181240 0.965444 8.623910 1.0
242 242 1 0.0 10.818400 2.784840 8.651680 1.0
587 587 1 0.0 18.140600 0.877714 8.652600 1.0
800 800 1 0.0 12.443700 2.828790 8.717020 1.0
948 948 1 0.0 1.399260 5.067100 8.767250 1.0
950 950 1 0.0 12.831000 5.259580 8.771430 1.0
538 538 1 0.0 12.822000 3.689420 8.789060 1.0
196 196 1 0.0 10.545500 11.945700 8.818390 1.0
230 230 1 0.0 18.809500 10.452400 8.851980 1.0
317 317 1 0.0 1.322570 18.065000 8.864060 1.0
776 776 1 0.0 2.733010 12.254900 8.867490 1.0
806 806 1 0.0 6.872570 1.928510 8.902820 1.0
554 554 1 0.0 18.427900 6.520170 8.909470 1.0
651 651 1 0.0 18.897500 2.027160 8.921510 1.0
361 361 1 0.0 5.593770 3.031060 8.963260 1.0
281 281 1 0.0 20.204900 5.849570 8.965790 1.0
711 711 1 0.0 18.733500 0.530610 8.995830 1.0
481 481 1 0.0 17.562400 13.896600 9.018920 1.0
49 49 1 0.0 3.974410 20.218300 9.047430 1.0
673 673 1 0.0 15.153200 13.056000 9.074680 1.0
951 951 1 0.0 9.565370 16.876300 9.077870 1.0
449 449 1 0.0 13.717200 1.782910 9.079680 1.0
250 250 1 0.0 12.393800 16.665700 9.110020 1.0
208 208 1 0.0 6.444230 14.453500 9.177370 1.0
632 632 1 0.0 14.317400 5.612100 9.181290 1.0
35 35 1 0.0 6.876220 10.812500 9.217410 1.0
163 163 1 0.0 8.033810 1.540380 9.238710 1.0
866 866 1 0.0 3.654960 2.607560 9.305780 1.0
529 529 1 0.0 14.714200 16.305800 9.357830 1.0
662 662 1 0.0 5.271380 9.681350 9.358380 1.0
189 189 1 0.0 10.490900 6.304640 9.381830 1.0
656 656 1 0.0 8.506980 14.583000 9.381860 1.0
678 678 1 0.0 10.317900 14.013600 9.405610 1.0
176 176 1 0.0 9.947690 19.020500 9.407800 1.0
931 931 1 0.0 12.132900 14.916000 9.450510 1.0
539 539 1 0.0 16.051200 15.151000 9.470610 1.0
170 170 1 0.0 15.895100 6.969530 9.513170 1.0
324 324 1 0.0 2.467740 9.462110 9.515500 1.0
863 863 1 0.0 6.485790 17.627900 9.516800 1.0
781 781 1 0.0 7.895780 12.241200 9.601250 1.0
177 177 1 0.0 17.118600 18.427400 9.619740 1.0
983 983 1 0.0 18.281400 12.210500 9.621560 1.0
553 553 1 0.0 16.567400 2.485120 9.641940 1.0
77 77 1 0.0 13.107800 7.598220 9.683820 1.0
636 636 1 0.0 6.561000 19.649400 9.725170 1.0
3 3 1 0.0 4.740990 5.732420 9.728530 1.0
246 246 1 0.0 8.232880 15.891600 9.763320 1.0
433 433 1 0.0 14.676800 0.259456 9.804410 1.0
513 513 1 0.0 7.008990 8.460600 9.845780 1.0
913 913 1 0.0 1.887900 12.691900 9.850450 1.0
653 653 1 0.0 9.120690 1.842540 9.871080 1.0
922 922 1 0.0 0.269153 17.292200 9.879140 1.0
784 784 1 0.0 16.297100 9.353410 9.881450 1.0
575 575 1 0.0 20.052000 12.729000 9.906070 1.0
816 816 1 0.0 2.766750 18.917400 9.917440 1.0
801 801 1 0.0 5.283240 7.581010 9.950480 1.0
152 152 1 0.0 7.268230 5.550110 9.952930 1.0
215 215 1 0.0 14.879200 11.041800 9.953910 1.0
157 157 1 0.0 3.224210 14.571900 9.981460 1.0
895 895 1 0.0 20.130800 7.558960 9.996940 0.0
420 420 1 0.0 1.006790 16.319500 9.997900 0.0
300 300 1 0.0 4.015050 8.052480 10.016200 0.0
609 609 1 0.0 19.789100 9.612620 10.017800 0.0
832 832 1 0.0 11.147600 9.398250 10.031800 0.0
589 589 1 0.0 15.169200 2.681520 10.039600 0.0
499 499 1 0.0 5.870500 12.111000 10.064000 0.0
997 997 1 0.0 8.028940 3.668560 10.065800 0.0
465 465 1 0.0 17.769700 10.149800 10.083300 0.0
455 455 1 0.0 17.998600 4.065470 10.108700 0.0
660 660 1 0.0 2.682620 16.086500 10.111500 0.0
266 266 1 0.0 10.553500 16.246400 10.118700 0.0
909 909 1 0.0 11.689400 0.886903 10.133500 0.0
825 825 1 0.0 11.822800 12.535100 10.141700 0.0
791 791 1 0.0 5.906240 16.365800 10.150200 0.0
811 811 1 0.0 19.279400 14.606700 10.154700 0.0
682 682 1 0.0 18.008300 15.963400 10.249100 0.0
33 33 1 0.0 15.760000 0.823284 10.281600 0.0
328 328 1 0.0 12.965000 18.523800 10.339500 0.0
718 718 1 0.0 1.382260 0.797464 10.351100 0.0
497 497 1 0.0 9.592180 2.711250 10.357800 0.0
872 872 1 0.0 0.591768 19.146400 10.411100 0.0
404 404 1 0.0 1.431600 1.766270 10.416800 0.0
336 336 1 0.0 4.228950 16.718600 10.417400 0.0
456 456 1 0.0 5.141190 15.247800 10.495900 0.0
862 862 1 0.0 12.163200 19.854000 10.499800 0.0
484 484 1 0.0 3.141950 1.538490 10.527600 0.0
263 263 1 0.0 1.954010 13.758900 10.553400 0.0
758 758 1 0.0 18.765400 7.155610 10.564900 0.0
392 392 1 0.0 12.882700 2.983770 10.578400 0.0
655 655 1 0.0 1.296370 6.130490 10.600900 0.0
946 946 1 0.0 9.580280 3.567900 10.609000 0.0
821 821 1 0.0 12.628200 10.603500 10.634100 0.0
63 63 1 0.0 13.809200 14.748300 10.686700 0.0
435 435 1 0.0 9.014240 7.340600 10.686700 0.0
386 386 1 0.0 18.589200 19.018400 10.688000 0.0
827 827 1 0.0 15.103400 19.114500 10.707500 0.0
907 907 1 0.0 0.409601 3.764200 10.735100 0.0
645 645 1 0.0 10.903000 7.988060 10.740000 0.0
496 496 1 0.0 9.084160 12.714700 10.748200 0.0
205 205 1 0.0 4.134000 13.650300 10.765600 0.0
42 42 1 0.0 10.396000 14.825800 10.777500 0.0
295 295 1 0.0 13.545200 6.833770 10.811000 0.0
172 172 1 0.0 16.437100 11.750500 10.817500 0.0
486 486 1 0.0 4.599980 2.895810 10.820900 0.0
853 853 1 0.0 7.626690 13.969100 10.836800 0.0
527 527 1 0.0 3.027490 8.807700 10.861900 0.0
716 716 1 0.0 5.502740 20.092600 10.871700 0.0
247 247 1 0.0 17.202600 5.880000 10.873700 0.0
633 633 1 0.0 2.459400 8.087350 10.892400 0.0
93 93 1 0.0 14.559800 4.839460 10.898400 0.0
483 483 1 0.0 17.857200 1.882090 10.942500 0.0
427 427 1 0.0 0.899054 16.776400 10.968000 0.0
558 558 1 0.0 13.141300 4.756880 10.970800 0.0
641 641 1 0.0 10.023400 10.447500 10.972800 0.0
44 44 1 0.0 7.810250 17.206400 10.977200 0.0
287 287 1 0.0 3.065790 20.153900 10.990500 0.0
750 750 1 0.0 18.128800 13.166600 11.004900 0.0
650 650 1 0.0 5.002420 10.161200 11.012200 0.0
272 272 1 0.0 10.611500 18.390500 11.019200 0.0
277 277 1 0.0 11.961100 17.369600 11.019200 0.0
506 506 1 0.0 20.000200 13.263900 11.022000 0.0
9 9 1 0.0 13.872700 10.654000 11.095800 0.0
638 638 1 0.0 16.196000 3.987690 11.110500 0.0
173 173 1 0.0 18.597100 1.987600 11.112300 0.0
257 257 1 0.0 15.569800 14.592800 11.149500 0.0
26 26 1 0.0 5.428090 8.314380 11.152300 0.0
570 570 1 0.0 12.768900 13.058200 11.167900 0.0
869 869 1 0.0 10.921100 12.685300 11.253900 0.0
582 582 1 0.0 20.020100 10.684700 11.297500 0.0
536 536 1 0.0 5.531320 17.971400 11.302000 0.0
308 308 1 0.0 16.291000 16.954100 11.308000 0.0
661 661 1 0.0 7.775290 0.827884 11.355400 0.0
371 371 1 0.0 15.399000 7.499810 11.400600 0.0
752 752 1 0.0 14.224000 1.220000 11.420600 0.0
183 183 1 0.0 16.832800 8.518490 11.422800 0.0
297 297 1 0.0 7.271040 10.821700 11.425300 0.0
567 567 1 0.0 6.344640 4.611530 11.482100 0.0
743 743 1 0.0 8.046480 8.459110 11.580700 0.0
826 826 1 0.0 0.182408 1.154570 11.594900 0.0
971 971 1 0.0 1.529160 4.500560 11.617900 0.0
348 348 1 0.0 18.079400 18.156100 11.620600 0.0
144 144 1 0.0 14.260100 12.443300 11.621700 0.0
617 617 1 0.0 7.954490 5.481010 11.643700 0.0
82 82 1 0.0 2.959900 12.872800 11.668600 0.0
581 581 1 0.0 0.855019 10.626400 11.669400 0.0
234 234 1 0.0 3.544570 6.754870 11.753900 0.0
734 734 1 0.0 3.364310 1.613550 11.810100 0.0
515 515 1 0.0 18.749400 6.653770 11.813800 0.0
61 61 1 0.0 17.847800 2.824430 11.815400 0.0
448 448 1 0.0 4.502040 2.884170 11.815600 0.0
284 284 1 0.0 2.890780 4.285430 11.818400 0.0
395 395 1 0.0 10.977200 15.567900 11.821400 0.0
429 429 1 0.0 11.105700 2.625210 11.821600 0.0
507 507 1 0.0 0.679834 12.645900 11.910400 0.0
542 542 1 0.0 15.679300 10.259300 11.929400 0.0
40 40 1 0.0 19.275200 1.000090 11.951800 0.0
619 619 1 0.0 18.685700 15.983500 11.953100 0.0
737 737 1 0.0 5.486230 2.334760 11.970600 0.0
722 722 1 0.0 7.899850 18.522100 11.975100 0.0
974 974 1 0.0 18.303300 11.403600 11.994200 0.0
415 415 1 0.0 8.511340 12.655700 12.026500 0.0
706 706 1 0.0 3.350310 2.788590 12.036100 0.0
584 584 1 0.0 9.465700 9.255650 12.043200 0.0
141 141 1 0.0 4.857260 5.448680 12.053700 0.0
447 447 1 0.0 3.060340 16.166800 12.061500 0.0
689 689 1 0.0 16.366900 13.527400 12.075300 0.0
364 364 1 0.0 8.993860 19.675500 12.079500 0.0
730 730 1 0.0 10.685200 5.052270 12.137100 0.0
652 652 1 0.0 8.671840 4.340730 12.138500 0.0
596 596 1 0.0 7.398310 15.797000 12.143600 0.0
199 199 1 0.0 10.966300 19.173900 12.144700 0.0
188 188 1 0.0 6.321440 12.229200 12.165300 0.0
1000 1000 1 0.0 2.042560 14.863600 12.185400 0.0
190 190 1 0.0 2.739660 15.235600 12.208300 0.0
62 62 1 0.0 13.414800 18.004600 12.233300 0.0
106 106 1 0.0 20.249100 5.223070 12.242700 0.0
168 168 1 0.0 4.493810 11.655000 12.252300 0.0
605 605 1 0.0 9.850470 7.086700 12.255300 0.0
761 761 1 0.0 19.636300 14.006300 12.304700 0.0
377 377 1 0.0 6.594750 7.097970 12.331100 0.0
318 318 1 0.0 16.750900 18.635200 12.343800 0.0
880 880 1 0.0 5.140170 7.382310 12.343900 0.0
162 162 1 0.0 2.175200 11.399100 12.361800 0.0
642 642 1 0.0 13.719300 14.241300 12.379600 0.0
740 740 1 0.0 1.850790 7.511640 12.404000 0.0
824 824 1 0.0 12.115600 17.843500 12.427100 0.0
13 13 1 0.0 1.630790 3.107380 12.430500 0.0
700 700 1 0.0 9.511680 14.956300 12.433900 0.0
385 385 1 0.0 19.271700 7.765330 12.437300 0.0
835 835 1 0.0 6.243990 13.877100 12.437400 0.0
143 143 1 0.0 17.065900 9.897640 12.447300 0.0
154 154 1 0.0 17.280300 0.523350 12.451800 0.0
123 123 1 0.0 1.690530 17.538300 12.458800 0.0
111 111 1 0.0 14.173100 7.375730 12.474100 0.0
733 733 1 0.0 0.765461 18.304900 12.496400 0.0
90 90 1 0.0 9.323710 10.798500 12.499200 0.0
703 703 1 0.0 15.085800 17.925900 12.506400 0.0
838 838 1 0.0 9.114540 2.760170 12.514600 0.0
430 430 1 0.0 5.211450 16.564300 12.542500 0.0
851 851 1 0.0 6.999520 2.906440 12.637100 0.0
649 649 1 0.0 17.342500 5.397470 12.639400 0.0
975 975 1 0.0 15.382300 4.560350 12.656300 0.0
573 573 1 0.0 17.115300 16.729900 12.674800 0.0
691 691 1 0.0 14.161700 9.176320 12.675700 0.0
808 808 1 0.0 15.036400 2.135890 12.677600 0.0
431 431 1 0.0 0.867958 2.196270 12.750500 0.0
133 133 1 0.0 19.822000 18.064700 12.837400 0.0
627 627 1 0.0 19.293000 10.123400 12.843600 0.0
571 571 1 0.0 3.779790 13.750400 12.900500 0.0
343 343 1 0.0 11.981400 12.826000 12.932700 0.0
786 786 1 0.0 19.981600 12.131700 12.951200 0.0
964 964 1 0.0 11.218300 16.870300 12.984900 0.0
896 896 1 0.0 12.379700 0.016728 13.122900 0.0
357 357 1 0.0 1.931380 14.171400 13.145100 0.0
526 526 1 0.0 1.245950 9.708430 13.148200 0.0
602 602 1 0.0 7.286690 11.276800 13.156200 0.0
311 311 1 0.0 15.199700 14.345400 13.184200 0.0
249 249 1 0.0 4.998100 18.454600 13.216100 0.0
625 625 1 0.0 9.501280 17.701100 13.217900 0.0
91 91 1 0.0 12.943700 1.641270 13.250000 0.0
911 911 1 0.0 14.695800 11.541400 13.259400 0.0
612 612 1 0.0 4.687110 4.437900 13.296600 0.0
207 207 1 0.0 12.003800 9.819900 13.329400 0.0
304 304 1 0.0 8.924200 13.897700 13.344100 0.0
369 369 1 0.0 5.972230 13.201200 13.364600 0.0
109 109 1 0.0 19.608300 2.623790 13.382500 0.0
544 544 1 0.0 8.521070 15.795900 13.404900 0.0
518 518 1 0.0 2.523020 19.608900 13.412300 0.0
630 630 1 0.0 8.500240 18.504600 13.444300 0.0
315 315 1 0.0 13.667500 6.111030 13.459700 0.0
488 488 1 0.0 16.239700 20.179700 13.468600 0.0
637 637 1 0.0 1.136710 1.395970 13.492100 0.0
977 977 1 0.0 5.069170 11.315100 13.517800 0.0
248 248 1 0.0 7.285870 6.724800 13.521400 0.0
741 741 1 0.0 18.452900 0.109280 13.560800 0.0
41 41 1 0.0 5.867210 17.727700 13.613400 0.0
968 968 1 0.0 14.514500 2.739180 13.618300 0.0
892 892 1 0.0 5.925080 9.174580 13.670700 0.0
785 785 1 0.0 6.448000 19.567200 13.708100 0.0
929 929 1 0.0 16.849500 7.208880 13.709400 0.0
714 714 1 0.0 4.085850 6.508710 13.720300 0.0
217 217 1 0.0 14.051200 16.026500 13.755000 0.0
254 254 1 0.0 0.669407 9.223630 13.778100 0.0
338 338 1 0.0 9.685520 6.789560 13.778300 0.0
46 46 1 0.0 10.877500 3.181060 13.787000 0.0
699 699 1 0.0 17.408300 2.311270 13.801900 0.0
852 852 1 0.0 17.431200 8.735560 13.803000 0.0
981 981 1 0.0 11.561300 7.130570 13.808200 0.0
379 379 1 0.0 16.352200 11.131200 13.863800 0.0
972 972 1 0.0 2.457850 2.486870 13.874600 0.0
836 836 1 0.0 0.809632 6.760780 13.917600 0.0
307 307 1 0.0 9.228340 1.873540 13.943200 0.0
932 932 1 0.0 13.291800 10.458000 14.013700 0.0
531 531 1 0.0 5.789550 0.995753 14.051800 0.0
310 310 1 0.0 7.995250 2.684650 14.075700 0.0
218 218 1 0.0 15.396800 18.854800 14.076100 0.0
519 519 1 0.0 19.887200 16.221100 14.097600 0.0
510 510 1 0.0 7.399140 5.381600 14.107000 0.0
551 551 1 0.0 18.317000 15.515500 14.114500 0.0
850 850 1 0.0 16.266100 15.505900 14.120400 0.0
592 592 1 0.0 4.580170 15.185900 14.127000 0.0
184 184 1 0.0 18.542600 6.347210 14.139900 0.0
685 685 1 0.0 10.543300 11.062900 14.154500 0.0
25 25 1 0.0 19.701800 13.580400 14.159500 0.0
376 376 1 0.0 6.596210 14.495900 14.215900 0.0
831 831 1 0.0 0.564367 16.235000 14.220300 0.0
474 474 1 0.0 2.062590 14.358100 14.242300 0.0
64 64 1 0.0 2.495280 18.770800 14.283300 0.0
117 117 1 0.0 4.819180 10.348500 14.286200 0.0
762 762 1 0.0 6.845480 2.945950 14.286900 0.0
883 883 1 0.0 16.570800 18.264800 14.300400 0.0
959 959 1 0.0 11.758400 12.887400 14.309000 0.0
261 261 1 0.0 19.950800 11.417000 14.376900 0.0
805 805 1 0.0 10.351300 14.993600 14.383400 0.0
593 593 1 0.0 10.951100 4.735530 14.412600 0.0
899 899 1 0.0 15.387400 6.719650 14.424600 0.0
749 749 1 0.0 12.267200 14.965900 14.453100 0.0
914 914 1 0.0 11.048900 1.295970 14.495800 0.0
48 48 1 0.0 6.971580 16.052100 14.505500 0.0
644 644 1 0.0 14.807700 5.150150 14.547600 0.0
810 810 1 0.0 4.752090 16.439100 14.585600 0.0
394 394 1 0.0 14.783800 9.793750 14.602700 0.0
533 533 1 0.0 0.812287 5.141320 14.617300 0.0
654 654 1 0.0 10.540700 13.162200 14.624500 0.0
751 751 1 0.0 7.499630 9.391410 14.633400 0.0
618 618 1 0.0 9.555760 16.760600 14.655300 0.0
534 534 1 0.0 14.221100 18.400000 14.682500 0.0
86 86 1 0.0 12.842600 4.604580 14.683800 0.0
331 331 1 0.0 2.490800 3.927420 14.687500 0.0
495 495 1 0.0 10.452400 19.849300 14.714900 0.0
565 565 1 0.0 0.613491 14.256700 14.717000 0.0
930 930 1 0.0 15.273500 2.127820 14.724200 0.0
965 965 1 0.0 6.645210 12.158500 14.725800 0.0
66 66 1 0.0 19.235000 4.461250 14.764700 0.0
799 799 1 0.0 2.442460 7.611180 14.897700 0.0
846 846 1 0.0 5.172320 4.171950 14.928800 0.0
696 696 1 0.0 2.707250 8.243510 14.930300 0.0
666 666 1 0.0 14.947300 13.722400 14.934100 0.0
683 683 1 0.0 16.966800 12.559600 14.952100 0.0
279 279 1 0.0 17.837800 10.252500 14.956000 0.0
763 763 1 0.0 12.579400 11.401600 14.971500 0.0
290 290 1 0.0 3.125020 2.675480 15.000900 0.0
350 350 1 0.0 2.391060 10.441700 15.031200 0.0
132 132 1 0.0 5.959680 19.291400 15.050900 0.0
268 268 1 0.0 17.930300 18.963300 15.056500 0.0
10 10 1 0.0 12.514600 2.852390 15.059600 0.0
147 147 1 0.0 14.969400 0.482407 15.094200 0.0
134 134 1 0.0 0.214425 3.129770 15.099100 0.0
768 768 1 0.0 1.010740 12.432100 15.113300 0.0
639 639 1 0.0 10.386700 18.177700 15.114600 0.0
616 616 1 0.0 3.024270 13.973000 15.155300 0.0
151 151 1 0.0 6.082420 8.556980 15.156800 0.0
298 298 1 0.0 13.578600 7.904210 15.188800 0.0
611 611 1 0.0 3.218360 1.370330 15.189900 0.0
729 729 1 0.0 3.026130 12.007800 15.200900 0.0
603 603 1 0.0 8.557930 12.532400 15.210000 0.0
180 180 1 0.0 8.928470 14.629900 15.218500 0.0
359 359 1 0.0 7.650790 19.233300 15.233400 0.0
149 149 1 0.0 3.268310 5.662100 15.254100 0.0
323 323 1 0.0 1.505000 20.349700 15.284100 0.0
201 201 1 0.0 14.677000 11.923200 15.298700 0.0
707 707 1 0.0 9.623240 11.436000 15.328300 0.0
239 239 1 0.0 13.985400 1.930000 15.331200 0.0
773 773 1 0.0 9.534380 3.964810 15.354800 0.0
212 212 1 0.0 17.517300 14.084400 15.390700 0.0
812 812 1 0.0 17.089300 17.409700 15.407100 0.0
437 437 1 0.0 19.964200 19.974500 15.412300 0.0
211 211 1 0.0 16.515300 0.600965 15.429700 0.0
933 933 1 0.0 7.536010 2.295190 15.468400 0.0
443 443 1 0.0 4.595940 18.590800 15.511000 0.0
478 478 1 0.0 19.641700 10.287800 15.572000 0.0
313 313 1 0.0 1.017700 17.565300 15.581900 0.0
402 402 1 0.0 4.955010 3.354720 15.586400 0.0
906 906 1 0.0 18.040800 3.604720 15.605500 0.0
905 905 1 0.0 4.368260 8.761370 15.638000 0.0
676 676 1 0.0 13.822400 5.777860 15.638900 0.0
138 138 1 0.0 18.712500 15.575400 15.658100 0.0
861 861 1 0.0 3.159180 15.528000 15.669100 0.0
822 822 1 0.0 19.993900 7.234220 15.671300 0.0
842 842 1 0.0 17.448400 7.765660 15.701900 0.0
713 713 1 0.0 6.922820 3.105060 15.736900 0.0
500 500 1 0.0 13.480400 15.975700 15.748200 0.0
967 967 1 0.0 11.210400 5.562850 15.764200 0.0
980 980 1 0.0 0.627419 19.086700 15.786700 0.0
680 680 1 0.0 1.337790 1.835420 15.794700 0.0
164 164 1 0.0 17.199200 2.295940 15.809200 0.0
622 622 1 0.0 7.378180 11.197100 15.846600 0.0
958 958 1 0.0 12.654700 17.419600 15.876800 0.0
771 771 1 0.0 14.956300 7.358960 15.924400 0.0
620 620 1 0.0 9.928780 8.598490 15.924700 0.0
712 712 1 0.0 7.632260 6.845700 15.970600 0.0
387 387 1 0.0 17.257800 5.643160 16.019400 0.0
80 80 1 0.0 12.913600 18.674600 16.024700 0.0
925 925 1 0.0 1.135170 13.796300 16.034500 0.0
57 57 1 0.0 6.372450 15.887000 16.050400 0.0
417 417 1 0.0 3.898670 17.200500 16.056700 0.0
726 726 1 0.0 1.117920 9.437520 16.084600 0.0
524 524 1 0.0 2.223140 16.231800 16.088400 0.0
702 702 1 0.0 4.641190 2.942890 16.093000 0.0
955 955 1 0.0 18.984400 17.613900 16.123000 0.0
924 924 1 0.0 11.314000 10.263500 16.124700 0.0
549 549 1 0.0 18.585100 13.276900 16.215300 0.0
55 55 1 0.0 10.351200 14.688300 16.242100 0.0
671 671 1 0.0 13.019800 13.489700 16.266900 0.0
672 672 1 0.0 10.845500 16.662200 16.281100 0.0
881 881 1 0.0 11.479100 1.740600 16.325600 0.0
674 674 1 0.0 3.973980 4.448660 16.354900 0.0
482 482 1 0.0 7.778290 4.148260 16.359800 0.0
182 182 1 0.0 4.174050 13.535200 16.362600 0.0
663 663 1 0.0 10.056200 18.482600 16.380900 0.0
470 470 1 0.0 15.339800 3.905100 16.411000 0.0
504 504 1 0.0 12.530700 9.295770 16.440800 0.0
171 171 1 0.0 0.415212 5.193290 16.446500 0.0
982 982 1 0.0 1.492840 6.829680 16.453900 0.0
939 939 1 0.0 1.494970 14.027700 16.486500 0.0
463 463 1 0.0 4.218540 6.150950 16.492800 0.0
590 590 1 0.0 8.406350 16.025700 16.518500 0.0
221 221 1 0.0 15.784300 15.316600 16.540700 0.0
104 104 1 0.0 6.973070 9.335010 16.667500 0.0
11 11 1 0.0 7.107950 18.063800 16.668400 0.0
509 509 1 0.0 20.261900 9.458660 16.674900 0.0
197 197 1 0.0 14.385600 10.722700 16.691700 0.0
819 819 1 0.0 5.981470 2.361280 16.717100 0.0
563 563 1 0.0 1.786050 4.313320 16.754500 0.0
53 53 1 0.0 19.430900 2.872570 16.780000 0.0
615 615 1 0.0 2.822510 1.407620 16.792600 0.0
235 235 1 0.0 11.925600 6.014970 16.812800 0.0
744 744 1 0.0 5.373760 14.579400 16.840600 0.0
14 14 1 0.0 15.222400 0.370982 16.851400 0.0
399 399 1 0.0 4.153510 19.749600 16.861100 0.0
746 746 1 0.0 4.647860 11.411500 16.862800 0.0
291 291 1 0.0 5.718860 19.690300 16.865700 0.0
270 270 1 0.0 14.212300 19.312600 16.904500 0.0
514 514 1 0.0 13.867500 2.287800 16.907700 0.0
517 517 1 0.0 13.264400 7.822680 16.914800 0.0
648 648 1 0.0 6.312840 12.899100 16.985300 0.0
12 12 1 0.0 5.772510 5.135830 17.021900 0.0
71 71 1 0.0 14.317200 6.230030 17.045100 0.0
910 910 1 0.0 8.277950 13.553500 17.138600 0.0
200 200 1 0.0 17.177000 15.745900 17.138700 0.0
222 222 1 0.0 5.312470 6.708910 17.139100 0.0
286 286 1 0.0 18.532800 7.599800 17.140400 0.0
405 405 1 0.0 17.048700 18.898500 17.148600 0.0
8 8 1 0.0 9.566430 11.863400 17.151300 0.0
468 468 1 0.0 12.217800 15.131900 17.159200 0.0
679 679 1 0.0 7.650590 11.404800 17.198500 0.0
68 68 1 0.0 16.929100 8.485030 17.202100 0.0
979 979 1 0.0 13.328500 2.976490 17.209200 0.0
962 962 1 0.0 17.072200 13.538100 17.214500 0.0
889 889 1 0.0 8.545830 0.591016 17.220000 0.0
875 875 1 0.0 7.877280 5.914490 17.225700 0.0
28 28 1 0.0 19.848500 0.902620 17.273200 0.0
796 796 1 0.0 8.179240 9.145960 17.294200 0.0
698 698 1 0.0 12.234000 18.241600 17.299600 0.0
760 760 1 0.0 0.618511 0.128324 17.303600 0.0
283 283 1 0.0 11.412900 13.121500 17.338900 0.0
259 259 1 0.0 2.261580 18.748400 17.347400 0.0
373 373 1 0.0 8.540840 18.881400 17.355600 0.0
491 491 1 0.0 9.271460 4.179650 17.360800 0.0
624 624 1 0.0 16.923300 9.973390 17.401600 0.0
45 45 1 0.0 10.527800 7.582560 17.444700 0.0
952 952 1 0.0 10.318800 18.473900 17.465900 0.0
576 576 1 0.0 6.619920 0.650122 17.481700 0.0
237 237 1 0.0 3.595430 8.491080 17.512300 0.0
160 160 1 0.0 11.718900 19.793200 17.542100 0.0
370 370 1 0.0 18.606300 1.609430 17.600100 0.0
792 792 1 0.0 18.377600 4.779650 17.627200 0.0
88 88 1 0.0 15.863300 11.839600 17.650100 0.0
34 34 1 0.0 7.111380 14.771600 17.674200 0.0
944 944 1 0.0 2.507840 16.616000 17.680000 0.0
81 81 1 0.0 1.075340 1.662990 17.684800 0.0
759 759 1 0.0 10.407100 1.870690 17.686500 0.0
18 18 1 0.0 16.757500 3.615930 17.696700 0.0
725 725 1 0.0 7.996210 2.682840 17.697800 0.0
464 464 1 0.0 1.621090 15.514000 17.701600 0.0
135 135 1 0.0 13.639600 11.319600 17.727000 0.0
156 156 1 0.0 2.011480 3.224480 17.748000 0.0
635 635 1 0.0 19.222600 6.054300 17.840700 0.0
802 802 1 0.0 13.781100 15.086300 17.858000 0.0
721 721 1 0.0 6.304920 8.710450 17.858400 0.0
43 43 1 0.0 20.007500 10.395200 17.867500 0.0
256 256 1 0.0 10.313800 14.961700 17.869100 0.0
293 293 1 0.0 2.399040 6.754100 17.872800 0.0
450 450 1 0.0 19.967700 15.443500 17.886100 0.0
858 858 1 0.0 18.200500 16.160800 17.895900 0.0
4 4 1 0.0 9.727010 5.997540 17.898700 0.0
715 715 1 0.0 3.696130 1.606710 17.910300 0.0
383 383 1 0.0 18.954900 1.826150 17.968200 0.0
110 110 1 0.0 14.566900 12.450300 17.973300 0.0
260 260 1 0.0 18.268300 3.411780 18.021500 0.0
145 145 1 0.0 18.915900 13.359500 18.023300 0.0
358 358 1 0.0 3.574930 15.664200 18.035400 0.0
422 422 1 0.0 16.163700 7.199400 18.052600 0.0
994 994 1 0.0 13.034400 16.913900 18.065700 0.0
823 823 1 0.0 1.247510 10.199700 18.086600 0.0
687 687 1 0.0 0.566350 3.130540 18.126500 0.0
469 469 1 0.0 15.422100 18.320600 18.128000 0.0
460 460 1 0.0 3.975150 17.872200 18.129200 0.0
454 454 1 0.0 6.367430 17.260300 18.134400 0.0
938 938 1 0.0 15.755500 1.647750 18.151300 0.0
409 409 1 0.0 1.678710 12.636900 18.182000 0.0
604 604 1 0.0 5.112630 10.426900 18.203400 0.0
607 607 1 0.0 0.066792 5.170130 18.213400 0.0
937 937 1 0.0 12.023000 9.815740 18.257600 0.0
973 973 1 0.0 16.263100 2.142010 18.259700 0.0
79 79 1 0.0 13.585500 7.568960 18.269400 0.0
608 608 1 0.0 8.936660 9.551380 18.281500 0.0
775 775 1 0.0 5.138480 2.149300 18.315700 0.0
705 705 1 0.0 4.413050 7.675810 18.438200 0.0
95 95 1 0.0 9.052950 19.806700 18.439000 0.0
833 833 1 0.0 9.392760 16.813400 18.448100 0.0
505 505 1 0.0 4.699880 14.120400 18.478000 0.0
384 384 1 0.0 12.466500 2.552420 18.478200 0.0
127 127 1 0.0 4.796240 19.085000 18.479700 0.0
772 772 1 0.0 15.439500 15.612700 18.499100 0.0
436 436 1 0.0 2.771950 2.992920 18.519300 0.0
797 797 1 0.0 2.786050 7.556020 18.529100 0.0
795 795 1 0.0 5.346400 16.509100 18.548500 0.0
262 262 1 0.0 2.755940 10.717700 18.563900 0.0
621 621 1 0.0 2.271650 14.098800 18.606300 0.0
309 309 1 0.0 11.508800 16.952800 18.654100 0.0
227 227 1 0.0 5.480040 4.039670 18.702000 0.0
146 146 1 0.0 1.134230 3.110560 18.702200 0.0
233 233 1 0.0 1.209200 17.619900 18.716500 0.0
966 966 1 0.0 10.406900 2.873790 18.717400 0.0
193 193 1 0.0 18.649500 10.935900 18.757300 0.0
275 275 1 0.0 17.105400 0.962571 18.795600 0.0
407 407 1 0.0 5.316180 5.581900 18.807800 0.0
485 485 1 0.0 8.263380 6.198650 18.840700 0.0
568 568 1 0.0 10.061100 3.511770 18.880700 0.0
32 32 1 0.0 7.005300 19.107000 18.912300 0.0
15 15 1 0.0 11.674500 4.719120 18.912800 0.0
561 561 1 0.0 13.357900 9.292730 18.922400 0.0
67 67 1 0.0 17.905000 6.471520 18.946500 0.0
528 528 1 0.0 0.780562 15.083600 18.958300 0.0
837 837 1 0.0 9.581080 10.541100 18.998200 0.0
555 555 1 0.0 11.556900 8.393710 19.007100 0.0
978 978 1 0.0 2.586620 16.474200 19.028300 0.0
457 457 1 0.0 3.372920 19.905200 19.028700 0.0
410 410 1 0.0 10.216800 12.169800 19.071900 0.0
986 986 1 0.0 5.623220 1.721430 19.083200 0.0
74 74 1 0.0 14.824800 3.407940 19.086200 0.0
126 126 1 0.0 12.974800 20.330700 19.106300 0.0
267 267 1 0.0 10.185900 8.250800 19.123900 0.0
844 844 1 0.0 6.723710 10.065900 19.129400 0.0
16 16 1 0.0 19.066400 3.995130 19.139200 0.0
314 314 1 0.0 19.945300 16.850400 19.175200 0.0
273 273 1 0.0 12.268500 6.348540 19.175500 0.0
489 489 1 0.0 7.551230 13.190900 19.233000 0.0
588 588 1 0.0 3.407100 12.136200 19.244300 0.0
857 857 1 0.0 18.701500 9.155460 19.273800 0.0
578 578 1 0.0 15.281700 19.532900 19.321900 0.0
17 17 1 0.0 16.687500 10.931600 19.333200 0.0
400 400 1 0.0 0.443929 1.769450 19.361100 0.0
818 818 1 0.0 1.668160 9.604830 19.372000 0.0
594 594 1 0.0 3.120670 6.459050 19.375600 0.0
843 843 1 0.0 7.830790 8.161530 19.378500 0.0
466 466 1 0.0 10.799300 18.820300 19.408200 0.0
129 129 1 0.0 5.289320 12.724800 19.435100 0.0
665 665 1 0.0 5.929720 10.789200 19.454600 0.0
360 360 1 0.0 14.892800 10.025000 19.464300 0.0
912 912 1 0.0 17.970700 17.286100 19.479000 0.0
398 398 1 0.0 16.895600 13.835000 19.516100 0.0
757 757 1 0.0 5.141350 6.888860 19.527500 0.0
219 219 1 0.0 4.152820 1.943230 19.554800 0.0
742 742 1 0.0 8.811370 14.623800 19.558000 0.0
108 108 1 0.0 16.158000 16.791100 19.560600 0.0
523 523 1 0.0 15.398100 6.341490 19.603200 0.0
327 327 1 0.0 7.299980 2.272290 19.607400 0.0
426 426 1 0.0 11.732900 15.241500 19.615100 0.0
927 927 1 0.0 2.985120 19.094100 19.622500 0.0
686 686 1 0.0 6.016030 15.568100 19.693300 0.0
556 556 1 0.0 20.415500 13.284500 19.715500 0.0
475 475 1 0.0 16.398900 3.483460 19.749200 0.0
520 520 1 0.0 0.850450 14.350100 19.761700 0.0
216 216 1 0.0 18.155200 15.271400 19.788200 0.0
765 765 1 0.0 13.109200 18.628400 19.804500 0.0
893 893 1 0.0 0.523928 3.046490 19.812800 0.0
85 85 1 0.0 0.046981 8.099020 19.857700 0.0
870 870 1 0.0 2.474450 5.278800 19.857800 0.0
586 586 1 0.0 18.345000 19.354400 19.861800 0.0
614 614 1 0.0 12.568700 11.550200 19.887900 0.0
732 732 1 0.0 6.611670 7.708490 19.897800 0.0
458 458 1 0.0 2.095290 1.104950 19.928500 0.0
113 113 1 0.0 18.879400 1.826380 19.979400 0.0
65 65 1 0.0 14.106100 15.096000 20.019400 0.0
158 158 1 0.0 17.477300 12.194100 20.045000 0.0
192 192 1 0.0 19.151700 13.411600 20.073600 0.0
579 579 1 0.0 7.204210 17.035900 20.096400 0.0
537 537 1 0.0 20.128700 9.590600 20.111400 0.0
668 668 1 0.0 8.312020 3.460730 20.118200 0.0
540 540 1 0.0 9.954110 7.789040 20.186500 0.0
900 900 1 0.0 7.277560 5.649540 20.196300 0.0
512 512 1 0.0 3.871240 6.667410 20.214900 0.0
591 591 1 0.0 6.377120 18.627600 20.334000 0.0
292 292 1 0.0 2.985820 11.077000 20.405000 0.0
508 508 1 0.0 10.374800 16.063000 20.534300 0.0
548 548 1 0.0 3.441220 14.742400 20.837800 0.0
